local_stuff/sygus_stuff/sygus_inv_oai/sygus_cvc5/cvc_output/132_conf5.out
STDOUT:
(
(define-fun inv-f ((c Int) (i Int) (j Int) (conf_0 Int) (conf_1 Int) (conf_2 Int) (conf_3 Int) (conf_4 Int) (t Int) (tmp Int) (c_0 Int) (i_0 Int) (i_1 Int) (i_2 Int) (i_3 Int) (i_4 Int) (j_0 Int) (j_1 Int) (j_2 Int) (j_3 Int) (conf_0_0 Int) (conf_0_1 Int) (conf_0_2 Int) (conf_0_3 Int) (conf_1_0 Int) (conf_1_1 Int) (conf_1_2 Int) (conf_1_3 Int) (conf_2_0 Int) (conf_3_0 Int) (conf_3_1 Int) (conf_3_2 Int) (conf_3_3 Int) (conf_4_0 Int) (t_0 Int) (t_1 Int) (t_2 Int) (t_3 Int)) Bool (and (or (not (= c c_0)) (not (= i i_2)) (not (= j j_1)) (not (= conf_0 conf_0_1)) (not (= conf_1 conf_1_1)) (not (= conf_2 conf_2_0)) (not (= conf_3 conf_3_1)) (not (= conf_4 conf_4_0)) (not (= t t_1)) (>= i_2 0)) (>= i 0)))
)
